 $CONTRL scftyp=rhf runtyp=energy maxit=30 mult=1 ispher=1
     itol=30 icut=30 units=bohr cityp=guga qmttol=1.0e-8 $END
 $SYSTEM timlim=525600 mwords=100 $END
 $SCF dirscf=.false. $END
 $CIDRT iexcit=2 nfzc=0 ndoc=1 nval=27 group=d2h stsym=ag
        mxnint=14307305 $END
 $GUGDIA prttol=1.0e-6 cvgtol=1.0e-10 $END
 $DATA
H2 cc-pVTZ
dnh 2

H    1.00       0.000000       0.000000       0.700000
S   3
  1     33.8700000              0.0060680        
  2      5.0950000              0.0453080        
  3      1.1590000              0.2028220        
S   1
  1      0.3258000              1.0000000        
S   1
  1      0.1027000              1.0000000        
P   1
  1      1.4070000              1.0000000        
P   1
  1      0.3880000              1.0000000        
D   1
  1      1.0570000              1.0000000        

 $END
